branch-and-cut/resultados/I080/i080-131.sol
2284
14
1 67
39 28
67 8
5 31
28 7
36 65
31 65
6 28
3 36
2 39
39 65
66 2
67 31
66 4
